words_hard_train/684.qaiger
aag 83 24 0 1 59
2
4
8
10
14
18
22
36
38
42
58
60
64
76
78
92
94
100
102
122
124
128
140
142
166
6 2 4
12 8 10
16 12 14
20 16 18
24 21 23
26 20 22
28 25 27
30 7 28
32 6 29
34 31 33
40 36 38
44 27 43
46 26 42
48 45 47
50 41 49
52 40 48
54 51 53
56 34 55
62 58 60
66 47 65
68 46 64
70 67 69
72 62 71
74 56 73
80 76 78
82 13 15
84 83 17
86 81 85
88 80 84
90 87 89
96 92 94
98 97 8
104 100 102
106 105 11
108 104 10
110 107 109
112 98 110
114 96 9
116 111 114
118 113 117
120 91 119
126 122 124
130 127 128
132 126 129
134 131 133
136 134 68
138 120 137
144 140 142
146 17 19
148 147 21
150 144 149
152 145 148
154 151 153
156 138 154
158 63 70
160 135 69
162 159 161
164 156 162
166 74 164
i0 1 x1[4]
i1 2 y1[3]
i2 2 y2[0]
i3 2 y2[1]
i4 2 y2[2]
i5 2 y2[3]
i6 2 y2[4]
i7 1 x1[5]
i8 2 y1[2]
i9 2 y2[5]
i10 1 x1[6]
i11 2 y1[1]
i12 2 y2[6]
i13 1 x1[2]
i14 2 y1[5]
i15 1 x1[0]
i16 2 y1[7]
i17 1 x1[1]
i18 2 y1[6]
i19 1 x1[7]
i20 2 y1[0]
i21 2 y2[7]
i22 1 x1[3]
i23 2 y1[4]
o0 bool[0]
c
simplified
  ==
    add
      2 y2
      1
    and
      reverse
        2 y1
      1 x1
