words_hard_train/684.qaiger.qdimacs
p cnf 83 178
a 1 38 70 46 18 50 61 29 0
e 2 3 4 5 6 7 8 9 10 11 12 13 14 15 16 17 19 20 21 22 23 24 25 26 27 28 30 31 32 33 34 35 36 37 39 40 41 42 43 44 45 47 48 49 51 52 53 54 55 56 57 58 59 60 62 63 64 65 66 67 68 69 71 72 73 74 75 76 77 78 79 80 81 82 83 0
-1 -2 3 0
1 -3 0
2 -3 0
-4 -5 6 0
4 -6 0
5 -6 0
-6 -7 8 0
6 -8 0
7 -8 0
-8 -9 10 0
8 -10 0
9 -10 0
10 11 12 0
-10 -12 0
-11 -12 0
-10 -11 13 0
10 -13 0
11 -13 0
12 13 14 0
-12 -14 0
-13 -14 0
3 -14 15 0
-3 -15 0
14 -15 0
-3 14 16 0
3 -16 0
-14 -16 0
15 16 17 0
-15 -17 0
-16 -17 0
-18 -19 20 0
18 -20 0
19 -20 0
13 21 22 0
-13 -22 0
-21 -22 0
-13 -21 23 0
13 -23 0
21 -23 0
22 23 24 0
-22 -24 0
-23 -24 0
20 24 25 0
-20 -25 0
-24 -25 0
-20 -24 26 0
20 -26 0
24 -26 0
25 26 27 0
-25 -27 0
-26 -27 0
-17 27 28 0
17 -28 0
-27 -28 0
-29 -30 31 0
29 -31 0
30 -31 0
23 32 33 0
-23 -33 0
-32 -33 0
-23 -32 34 0
23 -34 0
32 -34 0
33 34 35 0
-33 -35 0
-34 -35 0
-31 35 36 0
31 -36 0
-35 -36 0
-28 36 37 0
28 -37 0
-36 -37 0
-38 -39 40 0
38 -40 0
39 -40 0
6 7 41 0
-6 -41 0
-7 -41 0
41 8 42 0
-41 -42 0
-8 -42 0
40 42 43 0
-40 -43 0
-42 -43 0
-40 -42 44 0
40 -44 0
42 -44 0
43 44 45 0
-43 -45 0
-44 -45 0
-46 -47 48 0
46 -48 0
47 -48 0
48 -4 49 0
-48 -49 0
4 -49 0
-50 -51 52 0
50 -52 0
51 -52 0
52 5 53 0
-52 -53 0
-5 -53 0
-52 -5 54 0
52 -54 0
5 -54 0
53 54 55 0
-53 -55 0
-54 -55 0
-49 -55 56 0
49 -56 0
55 -56 0
-48 4 57 0
48 -57 0
-4 -57 0
55 -57 58 0
-55 -58 0
57 -58 0
56 58 59 0
-56 -59 0
-58 -59 0
45 59 60 0
-45 -60 0
-59 -60 0
-61 -62 63 0
61 -63 0
62 -63 0
63 -64 65 0
-63 -65 0
64 -65 0
-63 64 66 0
63 -66 0
-64 -66 0
65 66 67 0
-65 -67 0
-66 -67 0
-67 -34 68 0
67 -68 0
34 -68 0
-60 68 69 0
60 -69 0
-68 -69 0
-70 -71 72 0
70 -72 0
71 -72 0
8 9 73 0
-8 -73 0
-9 -73 0
73 10 74 0
-73 -74 0
-10 -74 0
-72 74 75 0
72 -75 0
-74 -75 0
72 -74 76 0
-72 -76 0
74 -76 0
75 76 77 0
-75 -77 0
-76 -77 0
-69 -77 78 0
69 -78 0
77 -78 0
31 -35 79 0
-31 -79 0
35 -79 0
67 34 80 0
-67 -80 0
-34 -80 0
79 80 81 0
-79 -81 0
-80 -81 0
-78 -81 82 0
78 -82 0
81 -82 0
-37 -82 83 0
37 -83 0
82 -83 0
83 0
